units           real
atom_style      full
boundary        f f f
box             tilt large
pair_style      lj/cut/coul/cut 10 10 
pair_modify     mix arithmetic
special_bonds   amber
bond_style      harmonic
angle_style     harmonic
dihedral_style  charmm
improper_style  cvff
#read_restart    restart.1
read_data       lmp.data
neighbor        2.0 nsq
neigh_modify    delay 0
dump            1 all custom 100 lmp.dump id type xs ys zs ix iy iz vx vy vz
dump_modify     1 sort id
dump            2 all xtc 100 lmp.xtc
restart         1000 restart.1 restart.2
variable        GamNsurf equal lz*(pzz-0.5*(pxx+pyy))*101325/1e10*1e3
thermo_style    custom step time temp pe ke etotal econserve ecouple enthalpy press vol density lx ly lz pxx pyy pzz pxy pxz pyz v_GamNsurf epair evdwl ecoul elong etail emol ebond eangle edihed eimp
thermo_modify   flush yes 
thermo          10
minimize        1e-4 1e-6 5000 1000000
write_restart   lmp.restart
write_data      lmp_final.data


